p cnf 7230 17
-542 -2396 2751 0
-548 -2386 -2756 0
-546 -2384 -2754 0
-544 -2398 -2752 0
548 -2757 0
546 -2755 0
544 -2753 0
2756 2757 0
2754 2755 0
2752 2753 0
2386 -2757 0
2384 -2755 0
2398 -2753 0
-2044 2759 0
2044 -2759 0
-2750 -2751 0
2750 2751 0
